language ESSENCE' 1.0

letting C_FunctionND be
        [[0, 0, 0, 0, 0, 0, 0, 0, 0, 0, 0, 0; int(0..11)], [1, 0, 0, 0, 0, 0, 0, 0, 0, 0, 0, 0; int(0..11)],
         [1, 0, 0, 0, 0, 0, 0, 0, 0, 0, 0, 0; int(0..11)], [1, 0, 0, 0, 0, 0, 0, 0, 0, 0, 0, 0; int(0..11)],
         [1, 0, 0, 0, 0, 0, 0, 0, 0, 0, 0, 0; int(0..11)], [0, 0, 1, 0, 1, 0, 0, 0, 0, 0, 0, 0; int(0..11)],
         [0, 1, 0, 0, 1, 0, 0, 0, 0, 0, 0, 0; int(0..11)], [0, 0, 1, 1, 0, 0, 0, 0, 0, 0, 0, 0; int(0..11)],
         [0, 0, 0, 1, 1, 0, 0, 0, 0, 0, 0, 0; int(0..11)], [0, 1, 1, 0, 0, 0, 0, 0, 0, 0, 0, 0; int(0..11)],
         [0, 1, 0, 1, 0, 0, 0, 0, 0, 0, 0, 0; int(0..11)], [0, 0, 0, 0, 0, 1, 1, 1, 1, 1, 1, 0; int(0..11)];
             int(0..11)]
$ Visualisation for C_FunctionND
$ 0 0 0 0 0 0 0 0 0 0 0 0
$ 1 0 0 0 0 0 0 0 0 0 0 0
$ 1 0 0 0 0 0 0 0 0 0 0 0
$ 1 0 0 0 0 0 0 0 0 0 0 0
$ 1 0 0 0 0 0 0 0 0 0 0 0
$ 0 0 1 0 1 0 0 0 0 0 0 0
$ 0 1 0 0 1 0 0 0 0 0 0 0
$ 0 0 1 1 0 0 0 0 0 0 0 0
$ 0 0 0 1 1 0 0 0 0 0 0 0
$ 0 1 1 0 0 0 0 0 0 0 0 0
$ 0 1 0 1 0 0 0 0 0 0 0 0
$ 0 0 0 0 0 1 1 1 1 1 1 0

letting J_FunctionND be
        [[0, 1, 2, 3, 4, 5, 6, 7, 8, 9, 10, 11; int(0..11)], [1, 1, 9, 10, 6, 11, 6, 11, 11, 9, 10, 11; int(0..11)],
         [2, 9, 2, 7, 5, 5, 11, 7, 11, 9, 11, 11; int(0..11)], [3, 10, 7, 3, 8, 11, 11, 7, 8, 11, 10, 11; int(0..11)],
         [4, 6, 5, 8, 4, 5, 6, 11, 8, 11, 11, 11; int(0..11)], [5, 11, 5, 11, 5, 5, 11, 11, 11, 11, 11, 11; int(0..11)],
         [6, 6, 11, 11, 6, 11, 6, 11, 11, 11, 11, 11; int(0..11)],
         [7, 11, 7, 7, 11, 11, 11, 7, 11, 11, 11, 11; int(0..11)],
         [8, 11, 11, 8, 8, 11, 11, 11, 8, 11, 11, 11; int(0..11)],
         [9, 9, 9, 11, 11, 11, 11, 11, 11, 9, 11, 11; int(0..11)],
         [10, 10, 11, 10, 11, 11, 11, 11, 11, 11, 10, 11; int(0..11)],
         [11, 11, 11, 11, 11, 11, 11, 11, 11, 11, 11, 11; int(0..11)];
             int(0..11)]
$ Visualisation for J_FunctionND
$  0  1  2  3  4  5  6  7  8  9 10 11
$  1  1  9 10  6 11  6 11 11  9 10 11
$  2  9  2  7  5  5 11  7 11  9 11 11
$  3 10  7  3  8 11 11  7  8 11 10 11
$  4  6  5  8  4  5  6 11  8 11 11 11
$  5 11  5 11  5  5 11 11 11 11 11 11
$  6  6 11 11  6 11  6 11 11 11 11 11
$  7 11  7  7 11 11 11  7 11 11 11 11
$  8 11 11  8  8 11 11 11  8 11 11 11
$  9  9  9 11 11 11 11 11 11  9 11 11
$ 10 10 11 10 11 11 11 11 11 11 10 11
$ 11 11 11 11 11 11 11 11 11 11 11 11

letting M_FunctionND be
        [[0, 0, 0, 0, 0, 0, 0, 0, 0, 0, 0, 0; int(0..11)], [0, 1, 0, 0, 0, 0, 1, 0, 0, 1, 1, 1; int(0..11)],
         [0, 0, 2, 0, 0, 2, 0, 2, 0, 2, 0, 2; int(0..11)], [0, 0, 0, 3, 0, 0, 0, 3, 3, 0, 3, 3; int(0..11)],
         [0, 0, 0, 0, 4, 4, 4, 0, 4, 0, 0, 4; int(0..11)], [0, 0, 2, 0, 4, 5, 4, 2, 4, 2, 0, 5; int(0..11)],
         [0, 1, 0, 0, 4, 4, 6, 0, 4, 1, 1, 6; int(0..11)], [0, 0, 2, 3, 0, 2, 0, 7, 3, 2, 3, 7; int(0..11)],
         [0, 0, 0, 3, 4, 4, 4, 3, 8, 0, 3, 8; int(0..11)], [0, 1, 2, 0, 0, 2, 1, 2, 0, 9, 1, 9; int(0..11)],
         [0, 1, 0, 3, 0, 0, 1, 3, 3, 1, 10, 10; int(0..11)], [0, 1, 2, 3, 4, 5, 6, 7, 8, 9, 10, 11; int(0..11)];
             int(0..11)]
$ Visualisation for M_FunctionND
$  0  0  0  0  0  0  0  0  0  0  0  0
$  0  1  0  0  0  0  1  0  0  1  1  1
$  0  0  2  0  0  2  0  2  0  2  0  2
$  0  0  0  3  0  0  0  3  3  0  3  3
$  0  0  0  0  4  4  4  0  4  0  0  4
$  0  0  2  0  4  5  4  2  4  2  0  5
$  0  1  0  0  4  4  6  0  4  1  1  6
$  0  0  2  3  0  2  0  7  3  2  3  7
$  0  0  0  3  4  4  4  3  8  0  3  8
$  0  1  2  0  0  2  1  2  0  9  1  9
$  0  1  0  3  0  0  1  3  3  1 10 10
$  0  1  2  3  4  5  6  7  8  9 10 11

letting R_Function1D be [0, 1, 1, 1, 1, 2, 2, 2, 2, 2, 2, 3; int(0..11)]
